3B_framework_AA                         
   1.00000000000000     
    37.5899009704999969    0.0000000000000000    0.0000000000000000
   -18.7949504852000011   32.5538091661999971    0.0000000000000000
     0.0000000000000000    0.0000000000000000    3.6376500130000000
   C    O    N    H 
    72     6     6    48
Direct
  0.3618560205873820  0.7103233680172281  0.5000000000000000
  0.6381439794126180  0.2896766619827744  0.5000000000000000
  0.2896766619827744  0.6515326525701539  0.5000000000000000
  0.7103233680172281  0.3484673474298461  0.5000000000000000
  0.3484683314298422  0.6381439794126180  0.5000000000000000
  0.6515326525701539  0.3618560205873820  0.5000000000000000
  0.3179726939365040  0.6957682942925203  0.5000000000000000
  0.6820273360634985  0.3042317057074797  0.5000000000000000
  0.3042317057074797  0.6222043696439812  0.5000000000000000
  0.6957682942925203  0.3777956303560188  0.5000000000000000
  0.3777956303560188  0.6820273360634985  0.5000000000000000
  0.6222043696439812  0.3179726939365040  0.5000000000000000
  0.3903452266263798  0.7520846437212612  0.5000000000000000
  0.6096547433736177  0.2479153862787342  0.5000000000000000
  0.2479153862787342  0.6382595999051190  0.5000000000000000
  0.7520846437212612  0.3617404000948810  0.5000000000000000
  0.3617404000948810  0.6096547433736177  0.5000000000000000
  0.6382595999051190  0.3903452266263798  0.5000000000000000
  0.4042340317521820  0.8232396195586915  0.5000000000000000
  0.5957659382478155  0.1767603954413133  0.5000000000000000
  0.1767603954413133  0.5809944421934858  0.5000000000000000
  0.8232396195586915  0.4190055878065095  0.5000000000000000
  0.4190055878065095  0.5957659382478155  0.5000000000000000
  0.5809944421934858  0.4042340317521820  0.5000000000000000
  0.4473230051979229  0.8433051053129148  0.5000000000000000
  0.5526770248020725  0.1566948946870852  0.5000000000000000
  0.1566948946870852  0.6040178698850056  0.5000000000000000
  0.8433051053129148  0.3959821301149944  0.5000000000000000
  0.3959821301149944  0.5526770248020725  0.5000000000000000
  0.6040178698850056  0.4473230051979229  0.5000000000000000
  0.4701495579605819  0.8858904129221230  0.5000000000000000
  0.5298504420394181  0.1141095640778786  0.5000000000000000
  0.1141095640778786  0.5842590850384610  0.5000000000000000
  0.8858904129221230  0.4157408849615436  0.5000000000000000
  0.4157408849615436  0.5298504420394181  0.5000000000000000
  0.5842590850384610  0.4701495579605819  0.5000000000000000
  0.4516386727458652  0.9105369337696771  0.5000000000000000
  0.5483612972541323  0.0894630522303217  0.5000000000000000
  0.0894630522303217  0.5411017099761892  0.5000000000000000
  0.9105369337696771  0.4588982610238048  0.5000000000000000
  0.4588982610238048  0.5483612972541323  0.5000000000000000
  0.5411017099761892  0.4516386727458652  0.5000000000000000
  0.4083737007611887  0.8896533801090953  0.5000000000000000
  0.5916263292388138  0.1103466048908999  0.5000000000000000
  0.1103476028909043  0.5187202906520909  0.5000000000000000
  0.8896533801090953  0.4812797093479091  0.5000000000000000
  0.4812797093479091  0.5916263292388138  0.5000000000000000
  0.5187202906520909  0.4083737007611887  0.5000000000000000
  0.3851152883180546  0.8471574015268999  0.5000000000000000
  0.6148847116819454  0.1528425984731001  0.5000000000000000
  0.1528425984731001  0.5379578867911619  0.5000000000000000
  0.8471574015268999  0.4620421132088381  0.5000000000000000
  0.4620421132088381  0.6148847116819454  0.5000000000000000
  0.5379578867911619  0.3851152883180546  0.5000000000000000
  0.4761213922999872  0.9558253143450557  0.5000000000000000
  0.5238786077000128  0.0441746856549443  0.5000000000000000
  0.0441746856549443  0.5202960779549244  0.5000000000000000
  0.9558253143450557  0.4797039220450756  0.5000000000000000
  0.4797039220450756  0.5238786077000128  0.5000000000000000
  0.5202960779549244  0.4761213922999872  0.5000000000000000
  0.0230128903004712  0.5423710657757255  0.5000000000000000
  0.9769861206995287  0.4576289042242792  0.5000000000000000
  0.4576289042242792  0.4806418005247508  0.5000000000000000
  0.5423710657757255  0.5193581994752492  0.5000000000000000
  0.5193581994752492  0.9769861206995287  0.5000000000000000
  0.4806418005247508  0.0230128903004712  0.5000000000000000
  0.0195448393500683  0.4771807463997675  0.5000000000000000
  0.9804551606499317  0.5228192536002325  0.5000000000000000
  0.5228192536002325  0.5423640939502974  0.5000000000000000
  0.4771807463997675  0.4576359060497026  0.5000000000000000
  0.4576359060497026  0.9804551606499317  0.5000000000000000
  0.5423640939502974  0.0195448393500683  0.5000000000000000
  0.4162395956319855  0.6955031657908890  0.5000000000000000
  0.5837603743680191  0.3044968042091085  0.5000000000000000
  0.3044968042091085  0.7207363998410798  0.5000000000000000
  0.6955031657908890  0.2792635701589177  0.5000000000000000
  0.2792635701589177  0.5837603743680191  0.5000000000000000
  0.7207363998410798  0.4162395956319855  0.5000000000000000
  0.3791527952405076  0.7806830503263029  0.5000000000000000
  0.6208472047594924  0.2193169646737019  0.5000000000000000
  0.2193169646737019  0.5984707579142068  0.5000000000000000
  0.7806830503263029  0.4015292420857932  0.5000000000000000
  0.4015292420857932  0.6208472047594924  0.5000000000000000
  0.5984707579142068  0.3791527952405076  0.5000000000000000
  0.4228967497810672  0.7614071026846077  0.5000000000000000
  0.5771032502189328  0.2385929273153877  0.5000000000000000
  0.2385929273153877  0.6614906610964582  0.5000000000000000
  0.7614071026846077  0.3385093389035418  0.5000000000000000
  0.3385093389035418  0.5771032502189328  0.5000000000000000
  0.6614906610964582  0.4228967497810672  0.5000000000000000
  0.3469151462162614  0.7668474760499180  0.5000000000000000
  0.6530848537837386  0.2331525389500797  0.5000000000000000
  0.2331525389500797  0.5800676711663471  0.5000000000000000
  0.7668474760499180  0.4199323288336529  0.5000000000000000
  0.4199323288336529  0.6530858667837407  0.5000000000000000
  0.5800676711663471  0.3469151462162614  0.5000000000000000
  0.4632594154538978  0.8257803961886552  0.5000000000000000
  0.5367405845461022  0.1742196328113437  0.5000000000000000
  0.1742196328113437  0.6374790192652355  0.5000000000000000
  0.8257803961886552  0.3625209807347645  0.5000000000000000
  0.3625209807347645  0.5367405845461022  0.5000000000000000
  0.6374790192652355  0.4632594154538978  0.5000000000000000
  0.5035012355852331  0.9001885246136823  0.5000000000000000
  0.4964987944147694  0.0998114833863184  0.5000000000000000
  0.0998114833863184  0.6033127109715508  0.5000000000000000
  0.9001885246136823  0.3966872890284492  0.5000000000000000
  0.3966872890284492  0.4964987944147694  0.5000000000000000
  0.6033127109715508  0.5035012355852331  0.5000000000000000
  0.3921106778554702  0.9068317786917248  0.5000000000000000
  0.6078893221445298  0.0931682293082687  0.5000000000000000
  0.0931682293082687  0.4852788991637382  0.5000000000000000
  0.9068317786917248  0.5147211008362618  0.5000000000000000
  0.5147211008362618  0.6078893221445298  0.5000000000000000
  0.4852788991637382  0.3921106778554702  0.5000000000000000
  0.3516206247333500  0.8318692344266694  0.5000000000000000
  0.6483793752666500  0.1681307655733306  0.5000000000000000
  0.1681307655733306  0.5197513903066806  0.5000000000000000
  0.8318692344266694  0.4802486096933194  0.5000000000000000
  0.4802486096933194  0.6483793752666500  0.5000000000000000
  0.5197513903066806  0.3516206247333500  0.5000000000000000
  0.0399668337235610  0.5758433023000151  0.5000000000000000
  0.9600331772764434  0.4241566686999860  0.5000000000000000
  0.4241566686999860  0.4641225074235464  0.5000000000000000
  0.5758433023000151  0.5358774925764536  0.5000000000000000
  0.5358774925764536  0.9600331772764434  0.5000000000000000
  0.4641225074235464  0.0399668337235610  0.5000000000000000
  0.0337250870568795  0.4580180236205962  0.5000000000000000
  0.9662749169431137  0.5419819763794038  0.5000000000000000
  0.5419819763794038  0.5757070594362901  0.5000000000000000
  0.4580180236205962  0.4242929405637099  0.5000000000000000
  0.4242929405637099  0.9662749169431137  0.5000000000000000
  0.5757070594362901  0.0337250870568795  0.5000000000000000
 
  0.00000000E+00  0.00000000E+00  0.00000000E+00
  0.00000000E+00  0.00000000E+00  0.00000000E+00
  0.00000000E+00  0.00000000E+00  0.00000000E+00
  0.00000000E+00  0.00000000E+00  0.00000000E+00
  0.00000000E+00  0.00000000E+00  0.00000000E+00
  0.00000000E+00  0.00000000E+00  0.00000000E+00
  0.00000000E+00  0.00000000E+00  0.00000000E+00
  0.00000000E+00  0.00000000E+00  0.00000000E+00
  0.00000000E+00  0.00000000E+00  0.00000000E+00
  0.00000000E+00  0.00000000E+00  0.00000000E+00
  0.00000000E+00  0.00000000E+00  0.00000000E+00
  0.00000000E+00  0.00000000E+00  0.00000000E+00
  0.00000000E+00  0.00000000E+00  0.00000000E+00
  0.00000000E+00  0.00000000E+00  0.00000000E+00
  0.00000000E+00  0.00000000E+00  0.00000000E+00
  0.00000000E+00  0.00000000E+00  0.00000000E+00
  0.00000000E+00  0.00000000E+00  0.00000000E+00
  0.00000000E+00  0.00000000E+00  0.00000000E+00
  0.00000000E+00  0.00000000E+00  0.00000000E+00
  0.00000000E+00  0.00000000E+00  0.00000000E+00
  0.00000000E+00  0.00000000E+00  0.00000000E+00
  0.00000000E+00  0.00000000E+00  0.00000000E+00
  0.00000000E+00  0.00000000E+00  0.00000000E+00
  0.00000000E+00  0.00000000E+00  0.00000000E+00
  0.00000000E+00  0.00000000E+00  0.00000000E+00
  0.00000000E+00  0.00000000E+00  0.00000000E+00
  0.00000000E+00  0.00000000E+00  0.00000000E+00
  0.00000000E+00  0.00000000E+00  0.00000000E+00
  0.00000000E+00  0.00000000E+00  0.00000000E+00
  0.00000000E+00  0.00000000E+00  0.00000000E+00
  0.00000000E+00  0.00000000E+00  0.00000000E+00
  0.00000000E+00  0.00000000E+00  0.00000000E+00
  0.00000000E+00  0.00000000E+00  0.00000000E+00
  0.00000000E+00  0.00000000E+00  0.00000000E+00
  0.00000000E+00  0.00000000E+00  0.00000000E+00
  0.00000000E+00  0.00000000E+00  0.00000000E+00
  0.00000000E+00  0.00000000E+00  0.00000000E+00
  0.00000000E+00  0.00000000E+00  0.00000000E+00
  0.00000000E+00  0.00000000E+00  0.00000000E+00
  0.00000000E+00  0.00000000E+00  0.00000000E+00
  0.00000000E+00  0.00000000E+00  0.00000000E+00
  0.00000000E+00  0.00000000E+00  0.00000000E+00
  0.00000000E+00  0.00000000E+00  0.00000000E+00
  0.00000000E+00  0.00000000E+00  0.00000000E+00
  0.00000000E+00  0.00000000E+00  0.00000000E+00
  0.00000000E+00  0.00000000E+00  0.00000000E+00
  0.00000000E+00  0.00000000E+00  0.00000000E+00
  0.00000000E+00  0.00000000E+00  0.00000000E+00
  0.00000000E+00  0.00000000E+00  0.00000000E+00
  0.00000000E+00  0.00000000E+00  0.00000000E+00
  0.00000000E+00  0.00000000E+00  0.00000000E+00
  0.00000000E+00  0.00000000E+00  0.00000000E+00
  0.00000000E+00  0.00000000E+00  0.00000000E+00
  0.00000000E+00  0.00000000E+00  0.00000000E+00
  0.00000000E+00  0.00000000E+00  0.00000000E+00
  0.00000000E+00  0.00000000E+00  0.00000000E+00
  0.00000000E+00  0.00000000E+00  0.00000000E+00
  0.00000000E+00  0.00000000E+00  0.00000000E+00
  0.00000000E+00  0.00000000E+00  0.00000000E+00
  0.00000000E+00  0.00000000E+00  0.00000000E+00
  0.00000000E+00  0.00000000E+00  0.00000000E+00
  0.00000000E+00  0.00000000E+00  0.00000000E+00
  0.00000000E+00  0.00000000E+00  0.00000000E+00
  0.00000000E+00  0.00000000E+00  0.00000000E+00
  0.00000000E+00  0.00000000E+00  0.00000000E+00
  0.00000000E+00  0.00000000E+00  0.00000000E+00
  0.00000000E+00  0.00000000E+00  0.00000000E+00
  0.00000000E+00  0.00000000E+00  0.00000000E+00
  0.00000000E+00  0.00000000E+00  0.00000000E+00
  0.00000000E+00  0.00000000E+00  0.00000000E+00
  0.00000000E+00  0.00000000E+00  0.00000000E+00
  0.00000000E+00  0.00000000E+00  0.00000000E+00
  0.00000000E+00  0.00000000E+00  0.00000000E+00
  0.00000000E+00  0.00000000E+00  0.00000000E+00
  0.00000000E+00  0.00000000E+00  0.00000000E+00
  0.00000000E+00  0.00000000E+00  0.00000000E+00
  0.00000000E+00  0.00000000E+00  0.00000000E+00
  0.00000000E+00  0.00000000E+00  0.00000000E+00
  0.00000000E+00  0.00000000E+00  0.00000000E+00
  0.00000000E+00  0.00000000E+00  0.00000000E+00
  0.00000000E+00  0.00000000E+00  0.00000000E+00
  0.00000000E+00  0.00000000E+00  0.00000000E+00
  0.00000000E+00  0.00000000E+00  0.00000000E+00
  0.00000000E+00  0.00000000E+00  0.00000000E+00
  0.00000000E+00  0.00000000E+00  0.00000000E+00
  0.00000000E+00  0.00000000E+00  0.00000000E+00
  0.00000000E+00  0.00000000E+00  0.00000000E+00
  0.00000000E+00  0.00000000E+00  0.00000000E+00
  0.00000000E+00  0.00000000E+00  0.00000000E+00
  0.00000000E+00  0.00000000E+00  0.00000000E+00
  0.00000000E+00  0.00000000E+00  0.00000000E+00
  0.00000000E+00  0.00000000E+00  0.00000000E+00
  0.00000000E+00  0.00000000E+00  0.00000000E+00
  0.00000000E+00  0.00000000E+00  0.00000000E+00
  0.00000000E+00  0.00000000E+00  0.00000000E+00
  0.00000000E+00  0.00000000E+00  0.00000000E+00
  0.00000000E+00  0.00000000E+00  0.00000000E+00
  0.00000000E+00  0.00000000E+00  0.00000000E+00
  0.00000000E+00  0.00000000E+00  0.00000000E+00
  0.00000000E+00  0.00000000E+00  0.00000000E+00
  0.00000000E+00  0.00000000E+00  0.00000000E+00
  0.00000000E+00  0.00000000E+00  0.00000000E+00
  0.00000000E+00  0.00000000E+00  0.00000000E+00
  0.00000000E+00  0.00000000E+00  0.00000000E+00
  0.00000000E+00  0.00000000E+00  0.00000000E+00
  0.00000000E+00  0.00000000E+00  0.00000000E+00
  0.00000000E+00  0.00000000E+00  0.00000000E+00
  0.00000000E+00  0.00000000E+00  0.00000000E+00
  0.00000000E+00  0.00000000E+00  0.00000000E+00
  0.00000000E+00  0.00000000E+00  0.00000000E+00
  0.00000000E+00  0.00000000E+00  0.00000000E+00
  0.00000000E+00  0.00000000E+00  0.00000000E+00
  0.00000000E+00  0.00000000E+00  0.00000000E+00
  0.00000000E+00  0.00000000E+00  0.00000000E+00
  0.00000000E+00  0.00000000E+00  0.00000000E+00
  0.00000000E+00  0.00000000E+00  0.00000000E+00
  0.00000000E+00  0.00000000E+00  0.00000000E+00
  0.00000000E+00  0.00000000E+00  0.00000000E+00
  0.00000000E+00  0.00000000E+00  0.00000000E+00
  0.00000000E+00  0.00000000E+00  0.00000000E+00
  0.00000000E+00  0.00000000E+00  0.00000000E+00
  0.00000000E+00  0.00000000E+00  0.00000000E+00
  0.00000000E+00  0.00000000E+00  0.00000000E+00
  0.00000000E+00  0.00000000E+00  0.00000000E+00
  0.00000000E+00  0.00000000E+00  0.00000000E+00
  0.00000000E+00  0.00000000E+00  0.00000000E+00
  0.00000000E+00  0.00000000E+00  0.00000000E+00
  0.00000000E+00  0.00000000E+00  0.00000000E+00
  0.00000000E+00  0.00000000E+00  0.00000000E+00
  0.00000000E+00  0.00000000E+00  0.00000000E+00
  0.00000000E+00  0.00000000E+00  0.00000000E+00
  0.00000000E+00  0.00000000E+00  0.00000000E+00
